
******************************************************************************
This program contains Ipopt, a library for large-scale nonlinear optimization.
 Ipopt is released as open source code under the Eclipse Public License (EPL).
         For more information visit http://projects.coin-or.org/Ipopt

This version of Ipopt was compiled from source code available at
    https://github.com/IDAES/Ipopt as part of the Institute for the Design of
    Advanced Energy Systems Process Systems Engineering Framework (IDAES PSE
    Framework) Copyright (c) 2018-2019. See https://github.com/IDAES/idaes-pse.

This version of Ipopt was compiled using HSL, a collection of Fortran codes
    for large-scale scientific computation.  All technical papers, sales and
    publicity material resulting from use of the HSL codes within IPOPT must
    contain the following acknowledgement:
        HSL, a collection of Fortran codes for large-scale scientific
        computation. See http://www.hsl.rl.ac.uk.
******************************************************************************

This is Ipopt version 3.13.2, running with linear solver ma27.

Number of nonzeros in equality constraint Jacobian...:     1336
Number of nonzeros in inequality constraint Jacobian.:        0
Number of nonzeros in Lagrangian Hessian.............:     1696

Total number of variables............................:      512
                     variables with only lower bounds:      128
                variables with lower and upper bounds:      320
                     variables with only upper bounds:        0
Total number of equality constraints.................:      508
Total number of inequality constraints...............:        0
        inequality constraints with only lower bounds:        0
   inequality constraints with lower and upper bounds:        0
        inequality constraints with only upper bounds:        0

iter    objective    inf_pr   inf_du lg(mu)  ||d||  lg(rg) alpha_du alpha_pr  ls
   0  0.0000000e+00 2.04e+00 5.22e-14  -1.0 0.00e+00    -  0.00e+00 0.00e+00   0
   1  2.0281297e-04 2.04e+00 5.13e+01  -1.0 2.23e+06    -  7.57e-02 5.33e-04h  4
   2  1.6678754e-03 2.04e+00 1.55e+02  -1.0 3.30e+06    -  5.45e-02 9.29e-04h  4
   3  6.5381394e-02 2.03e+00 2.14e+04  -1.0 4.81e+06    -  4.32e-02 5.32e-03h  3
   4  2.8883820e+00 1.99e+00 1.50e+06  -1.0 4.08e+06    -  3.70e-02 2.92e-02h  2
   5  3.5678655e+00 1.98e+00 1.51e+06  -1.0 5.43e+06    -  1.99e-02 3.19e-03h  4
   6  3.7906982e+00 1.98e+00 1.51e+06  -1.0 5.56e+06    -  8.51e-03 9.90e-04h  6
   7  1.1744152e+01 1.86e+00 1.48e+06  -1.0 6.24e+06    -  1.36e-02 2.19e-02h  1
   8  1.2066587e+01 1.86e+00 1.48e+06  -1.0 8.46e+06    -  4.19e-03 5.95e-04h  1
   9  1.4759216e+01 1.84e+00 1.47e+06  -1.0 8.64e+06    -  1.34e-03 4.56e-03h  2
iter    objective    inf_pr   inf_du lg(mu)  ||d||  lg(rg) alpha_du alpha_pr  ls
  10  2.1787245e+01 1.81e+00 1.45e+06  -1.0 9.25e+06    -  6.07e-03 9.75e-03h  3
  11  2.8355119e+01 1.78e+00 1.44e+06  -1.0 9.96e+06    -  1.86e-02 7.85e-03h  6
  12  3.6378973e+01 1.75e+00 1.43e+06  -1.0 1.04e+07    -  3.14e-02 8.53e-03h  6
  13  5.2236649e+01 1.70e+00 1.41e+06  -1.0 1.08e+07    -  5.90e-02 1.46e-02h  5
  14  6.6423301e+01 1.67e+00 1.39e+06  -1.0 1.11e+07    -  8.95e-02 1.18e-02h  5
  15  9.2471120e+01 1.62e+00 1.38e+06  -1.0 1.10e+07    -  1.02e-01 1.97e-02h  4
  16  9.8271825e+01 1.61e+00 1.37e+06  -1.0 1.06e+07    -  1.56e-01 4.39e-03h  1
  17  1.3925980e+02 1.54e+00 1.35e+06  -1.0 1.00e+07    -  1.61e-01 2.90e-02h  3
  18  3.0279253e+02 1.28e+00 6.52e+06  -1.0 9.52e+06    -  2.34e-01 9.29e-02H  1
  19  3.0451776e+02 1.28e+00 6.52e+06  -1.0 7.85e+06    -  4.81e-01 1.12e-03h  1
iter    objective    inf_pr   inf_du lg(mu)  ||d||  lg(rg) alpha_du alpha_pr  ls
  20  4.0368752e+02 1.26e+00 8.20e+06  -1.0 4.19e+07    -  6.83e-02 9.83e-03h  1
  21  5.0856653e+02 1.24e+00 8.98e+06  -1.0 4.80e+07    -  8.47e-02 8.04e-03h  5
  22  6.9311736e+02 1.21e+00 1.02e+07  -1.0 4.95e+07    -  9.74e-02 1.23e-02h  5
  23  7.0562761e+02 1.20e+00 1.02e+07  -1.0 3.20e+07    -  3.53e-01 1.42e-03h  7
  24  7.1340629e+02 1.20e+00 1.02e+07  -1.0 5.07e+07    -  9.78e-02 4.92e-04h  9
  25  3.1391748e+03 1.02e+00 7.84e+07  -1.0 1.41e+08    -  4.30e-02 3.09e-02h  1
  26  3.1391560e+03 1.02e+00 3.85e+08  -1.0 1.72e+07  -2.0 7.16e-02 2.07e-05h  1
  27  3.1338621e+03 1.62e+00 8.81e+08  -1.0 1.66e+07  -2.5 7.43e-02 4.95e-03f  5
  28  3.1255433e+03 1.61e+00 1.33e+09  -1.0 1.49e+07  -3.0 9.01e-02 4.69e-03f  5
  29  3.1196681e+03 1.61e+00 1.37e+09  -1.0 1.39e+07  -3.4 1.02e-01 2.22e-03f  6
iter    objective    inf_pr   inf_du lg(mu)  ||d||  lg(rg) alpha_du alpha_pr  ls
  30  3.1088763e+03 1.64e+00 1.39e+09  -1.0 3.36e+07  -3.9 1.93e-01 1.40e-03f  6
  31  2.3391822e+03 1.68e+00 3.80e+09  -1.0 2.42e+08    -  4.08e-02 3.23e-03f  2
  32  4.0883763e+02 1.06e+01 4.61e+09  -1.0 8.46e+07    -  4.44e-01 5.47e-02f  1
  33  4.7018371e+02 1.06e+01 4.64e+09  -1.0 5.22e+07  -4.4 5.28e-02 4.81e-03h  1
  34  1.3183575e+03 1.02e+01 3.30e+09  -1.0 7.01e+07    -  3.70e-02 3.56e-02h  2
  35  6.8157635e+03 9.90e+00 1.72e+10  -1.0 2.62e+08    -  8.87e-05 3.10e-02h  3
  36  6.8782159e+03 9.85e+00 1.71e+10  -1.0 1.61e+07  -4.9 3.91e-02 4.46e-03h  1
  37  6.8795691e+03 9.85e+00 1.71e+10  -1.0 2.42e+07  -5.3 2.25e-02 4.35e-05h  1
  38  6.8580026e+03 9.85e+00 1.71e+10  -1.0 4.62e+09    -  2.35e-04 3.05e-05f  8
  39  6.3956318e+03 9.84e+00 1.70e+10  -1.0 9.52e+08  -5.8 4.91e-04 8.90e-04f  5
iter    objective    inf_pr   inf_du lg(mu)  ||d||  lg(rg) alpha_du alpha_pr  ls
  40  6.3954259e+03 9.84e+00 1.70e+10  -1.0 6.28e+08  -5.4 2.00e-02 4.32e-07f  5
  41  6.0029583e+03 9.84e+00 1.67e+10  -1.0 9.81e+08  -5.9 3.28e-03 8.10e-04f  5
  42  5.9096979e+03 9.83e+00 1.67e+10  -1.0 1.10e+09    -  1.23e-03 1.70e-04f  7
  43  4.9347084e+03 9.82e+00 1.60e+10  -1.0 1.00e+09  -5.4 5.73e-05 1.47e-03f  4
  44  4.9386934e+03 9.82e+00 1.60e+10  -1.0 1.06e+08  -5.0 4.59e-02 4.38e-05h  1
  45  4.8187379e+03 9.82e+00 1.58e+10  -1.0 2.45e+09  -5.5 2.68e-05 9.59e-05f  6
  46r 4.8187379e+03 9.82e+00 1.00e+03   1.0 0.00e+00  -4.2 0.00e+00 2.69e-07R  4
  47r 4.8187366e+03 2.74e+00 1.01e+03   1.0 4.46e+03    -  4.80e-03 2.68e-03f  1
  48r 4.8187366e+03 2.74e+00 9.99e+02   0.4 0.00e+00    -  0.00e+00 4.37e-07R  3
  49r 4.8187366e+03 1.46e+00 9.98e+02   0.4 4.29e+03    -  1.15e-03 1.58e-03f  1
iter    objective    inf_pr   inf_du lg(mu)  ||d||  lg(rg) alpha_du alpha_pr  ls
  50  4.8188284e+03 1.46e+00 1.25e+03  -1.0 6.53e+06    -  3.21e-01 2.56e-04h  1
  51  4.8180596e+03 1.46e+00 2.90e+03  -1.0 8.45e+07    -  2.46e-05 1.06e-05h  1
  52  4.8178511e+03 1.46e+00 6.01e+03  -1.0 2.25e+07    -  1.50e-05 8.53e-06f  1
  53  4.8167661e+03 1.46e+00 6.06e+03  -1.0 1.82e+07    -  2.43e-05 1.43e-04f  1
  54  4.8091103e+03 1.46e+00 5.81e+04  -1.0 1.79e+07    -  1.67e-04 1.27e-03f  1
  55  4.8050720e+03 1.46e+00 5.21e+04  -1.0 1.84e+07    -  1.57e-03 5.82e-04f  1
  56  4.7835974e+03 1.45e+00 3.12e+06  -1.0 1.85e+07    -  6.65e-02 3.00e-03f  1
  57  4.7575579e+03 7.19e+00 1.01e+07  -1.0 2.24e+07    -  5.12e-03 2.55e-02f  4
  58  4.6202115e+03 7.12e+00 1.34e+07  -1.0 3.42e+07    -  1.13e-01 9.89e-03f  4
  59  4.6039924e+03 7.11e+00 1.41e+07  -1.0 2.48e+07    -  6.26e-02 1.30e-03f  7
iter    objective    inf_pr   inf_du lg(mu)  ||d||  lg(rg) alpha_du alpha_pr  ls
  60  4.6002001e+03 7.11e+00 1.68e+07  -1.0 4.02e+07    -  4.62e-02 1.07e-03f  8
  61  4.6005384e+03 7.10e+00 1.88e+07  -1.0 4.89e+07    -  3.89e-02 1.41e-04h 11
  62  4.3680863e+03 7.09e+00 3.78e+08  -1.0 1.27e+08    -  4.81e-01 1.75e-03f  5
  63r 4.3680863e+03 7.09e+00 1.00e+03   0.9 0.00e+00    -  0.00e+00 2.81e-07R 20
  64r 4.3680861e+03 3.46e+00 1.02e+03   0.9 4.50e+03    -  6.70e-03 2.21e-03f  1
  65r 4.3680861e+03 3.46e+00 9.99e+02   0.5 0.00e+00    -  0.00e+00 2.90e-07R  3
  66r 4.3680862e+03 1.83e+00 9.97e+02   0.5 3.72e+03    -  2.37e-03 1.06e-03f  1
  67  4.3682179e+03 1.83e+00 1.28e+01  -1.0 5.79e+06    -  6.64e-05 2.22e-04h  1
  68r 4.3682179e+03 1.83e+00 9.99e+02   0.3 0.00e+00    -  0.00e+00 3.17e-07R  5
  69r 4.3682180e+03 1.39e+00 9.98e+02   0.3 3.75e+03    -  1.17e-03 1.43e-03f  1
iter    objective    inf_pr   inf_du lg(mu)  ||d||  lg(rg) alpha_du alpha_pr  ls
  70  4.3682725e+03 1.39e+00 2.76e+01  -1.0 5.62e+06    -  3.42e-03 1.19e-04h  1
  71  4.3682966e+03 1.39e+00 7.66e+04  -1.0 1.32e+07    -  1.31e-01 5.05e-05h  1
  72  4.3705038e+03 1.39e+00 9.09e+05  -1.0 1.91e+07    -  1.71e-01 5.08e-04h  1
  73  4.3690155e+03 1.39e+00 4.97e+06  -1.0 2.64e+07    -  6.05e-02 1.07e-04f  3
  74  3.9577507e+03 5.59e+00 1.69e+07  -1.0 3.66e+07    -  5.36e-02 1.52e-02f  1
  75  3.6678801e+03 5.49e+00 2.38e+07  -1.0 2.96e+07    -  1.67e-01 1.79e-02f  3
  76  3.5541705e+03 5.44e+00 3.31e+07  -1.0 2.37e+07    -  1.21e-01 9.54e-03f  4
  77  3.5302805e+03 5.42e+00 3.95e+07  -1.0 2.14e+07    -  6.23e-02 3.09e-03f  6
  78  3.5077290e+03 5.41e+00 4.84e+07  -1.0 1.82e+07    -  7.33e-02 3.22e-03f  6
  79  3.5036476e+03 5.40e+00 4.52e+08  -1.0 2.84e+07  -4.6 1.10e-01 6.62e-04f  5
iter    objective    inf_pr   inf_du lg(mu)  ||d||  lg(rg) alpha_du alpha_pr  ls
  80  1.6922609e+03 5.21e+00 9.11e+08  -1.0 6.89e+07    -  6.45e-01 3.61e-02f  1
  81  1.6928118e+03 5.20e+00 7.80e+08  -1.0 7.15e+06    -  3.10e-01 5.77e-04h  8
  82  1.6944157e+03 5.20e+00 8.31e+08  -1.0 2.44e+07    -  4.39e-02 1.64e-04h 11
  83  1.7748935e+03 5.20e+00 1.23e+09  -1.0 1.33e+08    -  4.91e-02 1.40e-03h  6
  84  1.8233388e+03 5.19e+00 2.02e+09  -1.0 9.10e+07    -  7.17e-02 1.21e-03h  7
  85  1.8658094e+03 5.19e+00 3.26e+09  -1.0 1.63e+08    -  4.19e-02 5.78e-04h  7
  86  2.1617815e+03 5.16e+00 5.70e+09  -1.0 1.53e+08    -  4.52e-02 4.11e-03h  4
  87  7.5299454e+02 4.94e+00 1.30e+11  -1.0 8.49e+07    -  5.82e-01 4.59e-02f  1
  88  7.1947676e+02 4.92e+00 1.29e+11  -1.0 1.83e+07    -  1.51e-03 4.69e-03H  1
  89  7.1150242e+02 1.62e+01 9.05e+10  -1.0 3.35e+06  -0.6 5.16e-04 6.73e-03H  1
iter    objective    inf_pr   inf_du lg(mu)  ||d||  lg(rg) alpha_du alpha_pr  ls
  90  7.2008906e+02 1.61e+01 9.00e+10  -1.0 7.64e+06    -  2.69e-01 4.28e-03h  3
  91  7.2068607e+02 1.61e+01 9.00e+10  -1.0 1.73e+07    -  2.11e-01 1.38e-04h  5
  92  7.2080259e+02 1.61e+01 2.47e+11  -1.0 3.45e+07    -  2.19e-01 1.38e-05h 13
  93r 7.2080259e+02 1.61e+01 1.00e+03   1.2 0.00e+00    -  0.00e+00 2.55e-07R 19
  94r 7.2080257e+02 4.36e+00 1.00e+03   1.2 9.73e+03    -  1.10e-02 1.56e-03f  1
  95r 7.2080257e+02 4.36e+00 9.99e+02   0.6 0.00e+00    -  0.00e+00 2.58e-07R  5
  96r 7.2080248e+02 3.44e+00 9.95e+02   0.6 3.79e+03    -  1.64e-02 1.24e-03f  1
  97  7.2088151e+02 3.44e+00 1.49e+01  -1.0 9.23e+05    -  1.13e-04 4.67e-04h  1
  98  7.2089346e+02 3.44e+00 7.00e+01  -1.0 1.54e+06    -  1.26e-03 2.22e-05h  1
  99  7.2090224e+02 3.44e+00 4.04e+02  -1.0 1.23e+06    -  5.00e-04 3.32e-05h  1
iter    objective    inf_pr   inf_du lg(mu)  ||d||  lg(rg) alpha_du alpha_pr  ls
 100  7.2094235e+02 3.44e+00 7.71e+03  -1.0 9.21e+06    -  7.58e-04 1.80e-05h  1
 101  7.2266509e+02 3.44e+00 2.20e+05  -1.0 9.41e+06    -  2.05e-02 7.55e-04h  1
 102  7.3040314e+02 3.42e+00 2.03e+05  -1.0 1.05e+07    -  1.50e-03 3.04e-03h  6
 103  7.6619034e+02 6.77e+01 7.13e+06  -1.0 5.57e+07    -  2.70e-03 2.70e-03s 14
 104r 7.6619034e+02 6.77e+01 9.99e+02   1.8 0.00e+00    -  0.00e+00 0.00e+00R  1
 105r 7.6619041e+02 1.48e+01 1.02e+03   1.8 2.70e+03    -  1.79e-02 3.59e-02f  1
 106  7.6622059e+02 1.48e+01 3.36e+00  -1.0 3.43e+06    -  2.83e-05 1.24e-04h  1
 107r 7.6622059e+02 1.48e+01 9.99e+02   1.2 0.00e+00    -  0.00e+00 3.32e-07R  3
 108r 7.6622015e+02 1.42e+01 9.81e+02   1.2 1.43e+03    -  3.80e-04 1.84e-02f  1
 109r 7.6622016e+02 1.41e+01 9.64e+02   1.2 3.99e+02    -  5.55e-02 1.68e-02f  1
iter    objective    inf_pr   inf_du lg(mu)  ||d||  lg(rg) alpha_du alpha_pr  ls
 110r 7.6622016e+02 1.39e+01 9.06e+02   1.2 5.22e+01   0.0 8.44e-02 6.11e-02f  1
 111r 7.6622016e+02 1.38e+01 8.32e+02   1.2 4.42e+00   2.2 5.30e-01 9.45e-02f  1
 112r 7.6622016e+02 1.38e+01 8.66e+02   1.2 1.25e+02   1.8 1.05e-03 4.84e-03f  1
 113r 7.6622031e+02 1.37e+01 8.27e+02   1.2 1.87e+02    -  9.33e-03 5.85e-03f  1
 114r 7.6622031e+02 1.37e+01 4.12e+03   1.2 7.79e+00   2.2 4.79e-02 2.94e-02f  1
 115r 7.6622031e+02 1.37e+01 4.06e+03   1.2 2.68e+01   1.7 1.44e-02 1.45e-02f  1
 116r 7.6622256e+02 1.35e+01 3.74e+03   1.2 1.82e+02    -  1.74e-01 8.13e-02f  1
 117r 7.6622339e+02 1.34e+01 3.36e+03   1.2 9.26e+01    -  4.89e-02 1.03e-01f  1
 118r 7.6622387e+02 1.33e+01 2.97e+03   1.2 6.31e+01    -  4.46e-01 1.16e-01f  1
 119r 7.6622385e+02 1.21e+01 2.04e+03   1.2 2.06e+01    -  2.64e-01 8.18e-01f  1
iter    objective    inf_pr   inf_du lg(mu)  ||d||  lg(rg) alpha_du alpha_pr  ls
 120  7.6486908e+02 1.21e+01 2.04e+04  -1.0 1.12e+06    -  4.10e-05 2.13e-05H  1
 121  7.6569655e+02 1.21e+01 2.04e+04  -1.0 2.35e+07    -  2.66e-05 1.34e-04h  9
 122  7.7811141e+02 5.74e+00 9.38e+06  -1.0 5.56e+06    -  4.30e-05 8.09e-03h  3
 123  7.8355459e+02 5.73e+00 9.35e+06  -1.0 6.46e+06    -  4.74e-02 2.97e-03h  4
 124  7.8977761e+02 5.71e+00 9.31e+06  -1.0 6.69e+06    -  1.25e-01 3.38e-03h  4
 125  7.8991616e+02 5.70e+00 9.42e+07  -1.0 1.31e+06  -1.1 1.38e-02 2.30e-03h  5
 126  7.8977726e+02 5.70e+00 9.23e+07  -1.0 5.01e+06  -1.6 4.25e-03 3.76e-04f  6
 127  7.8973008e+02 5.69e+00 1.09e+08  -1.0 1.64e+06  -1.1 1.40e-02 1.49e-03h  5
 128  7.8962777e+02 5.68e+00 1.10e+08  -1.0 2.24e+06  -1.6 1.31e-02 9.36e-04h  5
 129  7.8940823e+02 5.68e+00 1.09e+08  -1.0 6.00e+06  -2.1 3.04e-02 3.73e-04f  5
iter    objective    inf_pr   inf_du lg(mu)  ||d||  lg(rg) alpha_du alpha_pr  ls
 130  7.8931810e+02 5.67e+00 1.14e+08  -1.0 1.68e+06  -1.7 4.89e-02 1.65e-03h  4
 131  7.8805430e+02 1.20e+01 1.03e+09  -1.0 2.19e+06  -2.1 7.38e-02 9.28e-03w  1
 132  7.8282814e+02 1.19e+01 5.97e+08  -1.0 3.59e+07  -2.6 1.49e-03 6.99e-04w  1
 133  7.8286710e+02 1.19e+01 5.97e+08  -1.0 2.16e+06  -3.1 8.22e-02 2.53e-04w  1
 134  7.8915835e+02 5.67e+00 1.15e+08  -1.0 2.75e+06  -3.6 7.38e-02 1.16e-03h  3
 135  7.8897240e+02 5.66e+00 1.17e+08  -1.0 1.62e+06  -2.2 2.92e-02 1.48e-03h  5
 136  7.8861732e+02 5.65e+00 1.18e+08  -1.0 2.81e+06  -2.7 5.16e-02 1.00e-03f  5
 137  7.8737925e+02 5.65e+00 1.36e+08  -1.0 4.47e+08  -3.2 9.05e-05 1.64e-05f  4
 138  7.8635830e+02 5.65e+00 1.50e+08  -1.0 1.64e+07  -3.7 1.18e-02 3.65e-04f  4
 139  4.5055194e+02 1.28e+01 2.64e+08  -1.0 3.91e+07    -  1.06e-01 4.30e-02f  1
iter    objective    inf_pr   inf_du lg(mu)  ||d||  lg(rg) alpha_du alpha_pr  ls
 140  4.6143407e+02 1.27e+01 2.66e+08  -1.0 5.21e+06  -4.1 1.57e-02 1.07e-02h  2
 141r 4.6143407e+02 1.27e+01 1.00e+03   1.1 0.00e+00    -  0.00e+00 3.24e-07R  8
 142r 4.6143404e+02 1.23e+01 9.89e+02   1.1 1.07e+02    -  5.06e-02 1.01e-02f  1
 143r 4.6143404e+02 7.86e-01 9.41e+02   1.1 6.06e+00   2.0 3.10e-01 1.24e-01f  1
 144  4.6149070e+02 7.85e-01 6.07e+01  -1.0 2.22e+06    -  4.25e-02 6.86e-04h  1
 145  4.6151422e+02 7.85e-01 3.59e+03  -1.0 2.91e+06    -  6.44e-03 1.11e-04h  1
 146  4.6198315e+02 7.83e-01 1.14e+04  -1.0 2.96e+06    -  6.56e-03 2.15e-03h  1
 147  4.6259563e+02 7.81e-01 1.38e+05  -1.0 2.99e+06    -  6.53e-02 2.72e-03h  5
 148  4.6290890e+02 7.80e-01 1.62e+05  -1.0 3.05e+06    -  1.53e-02 2.31e-03h  6
 149  4.6321225e+02 7.78e-01 2.58e+05  -1.0 3.16e+06    -  5.61e-02 2.32e-03h  6
iter    objective    inf_pr   inf_du lg(mu)  ||d||  lg(rg) alpha_du alpha_pr  ls
 150  4.6341703e+02 7.76e-01 2.92e+05  -1.0 3.35e+06    -  3.14e-02 2.31e-03h  6
 151  4.6359735e+02 7.74e-01 3.48e+05  -1.0 3.43e+06    -  6.43e-02 2.34e-03h  6
 152  4.6362849e+02 7.74e-01 3.69e+05  -1.0 3.51e+06    -  4.90e-02 5.94e-04h  8
 153  4.6363470e+02 7.74e-01 3.86e+05  -1.0 3.53e+06    -  7.27e-02 1.49e-04h 10
 154  4.6363525e+02 7.74e-01 3.87e+05  -1.0 3.55e+06    -  4.99e-02 1.86e-05h 13
 155  4.7142358e+02 1.14e+01 1.57e+06  -1.0 3.55e+06    -  7.60e-02 7.60e-02s 19
 156  4.7115997e+02 1.13e+01 1.57e+06  -1.0 4.42e+06    -  1.18e-03 1.18e-03s 19
 157  4.7091430e+02 1.13e+01 1.57e+06  -1.0 4.42e+06    -  2.38e-03 2.38e-03s 19
 158  4.7054770e+02 1.12e+01 1.56e+06  -1.0 4.44e+06    -  5.31e-03 5.31e-03s 19
 159  4.7166653e+02 5.85e+00 3.43e+05  -1.0 4.49e+06    -  3.07e-02 3.07e-02s 19
iter    objective    inf_pr   inf_du lg(mu)  ||d||  lg(rg) alpha_du alpha_pr  ls
 160  4.7218509e+02 5.85e+00 3.43e+05  -1.0 5.45e+06    -  4.26e-04 4.26e-04s 19
 161  4.7309030e+02 5.85e+00 3.43e+05  -1.0 3.37e+07    -  1.61e-04 1.61e-04s 19
 162  4.7491124e+02 5.85e+00 3.43e+05  -1.0 3.46e+07    -  3.15e-04 3.15e-04s 19
 163  6.6037118e+02 5.76e+00 2.27e+06  -1.0 3.49e+07    -  2.69e-02 2.69e-02s 19
 164  7.9599339e+02 5.72e+00 3.87e+06  -1.0 6.70e+07    -  8.49e-03 8.49e-03s 19
 165  1.1753883e+03 5.64e+00 2.03e+07  -1.0 1.07e+08    -  1.22e-02 1.22e-02s 19
 166r 1.1753883e+03 5.64e+00 1.00e+03   0.8 0.00e+00    -  0.00e+00 0.00e+00R  1
 167r 1.1753881e+03 3.11e+00 9.96e+02   0.8 5.33e+03    -  5.33e-03 1.05e-03f  1
 168r 1.1753879e+03 1.17e+01 9.92e+02   0.8 1.41e+03    -  3.98e-03 3.43e-03f  1
 169r 1.1753880e+03 7.69e-01 9.85e+02   0.8 3.91e+02    -  1.31e-02 5.18e-03f  1
iter    objective    inf_pr   inf_du lg(mu)  ||d||  lg(rg) alpha_du alpha_pr  ls
 170r 1.1753880e+03 6.78e-01 9.69e+02   0.8 3.89e+02    -  7.86e-02 1.08e-02f  1
 171r 1.1753878e+03 2.53e+00 9.64e+02   0.8 6.26e+02    -  2.05e-03 5.79e-03f  1
 172r 1.1753869e+03 2.86e+00 9.43e+02   0.8 3.05e+02    -  3.19e-02 4.32e-02f  1
 173r 1.1753867e+03 2.75e+00 8.93e+02   0.8 8.39e+01    -  2.82e-01 3.35e-02f  1
 174r 1.1753873e+03 5.19e+00 7.58e+02   0.8 7.46e+01    -  1.16e-01 1.51e-01f  1
 175r 1.1753873e+03 4.65e+00 7.25e+02   0.8 5.11e+00   2.0 4.45e-01 1.06e-01f  1
 176r 1.1753869e+03 3.93e+00 1.84e+03   0.8 1.30e+02    -  7.12e-02 1.48e-01f  1
 177r 1.1753856e+03 2.55e+00 1.31e+03   0.8 5.30e+01    -  5.07e-01 3.46e-01f  1
 178r 1.1753888e+03 2.49e+00 1.20e+03   0.8 1.08e+02    -  5.31e-01 2.67e-01f  1
 179r 1.1753869e+03 2.83e+00 5.23e+02   0.8 4.61e+01    -  5.77e-01 3.15e-01f  1
iter    objective    inf_pr   inf_du lg(mu)  ||d||  lg(rg) alpha_du alpha_pr  ls
 180r 1.1753887e+03 5.87e+00 7.85e+02   0.8 1.31e+02    -  3.09e-01 2.96e-01f  1
 181r 1.1753887e+03 3.65e+00 5.11e+02   0.8 5.86e+00   1.5 2.16e-01 3.78e-01h  1
 182r 1.1753887e+03 5.39e+01 2.02e+04   0.8 3.60e+00   2.9 1.31e-01 2.34e-01f  1
 183r 1.1753887e+03 2.79e+00 4.40e+03   0.8 1.62e+00   5.1 8.45e-03 1.84e-02h  1
 184r 1.1753887e+03 2.72e+00 8.75e+03   0.8 1.69e+00   4.6 3.25e-02 6.82e-02h  1
 185r 1.1753887e+03 2.72e+00 8.75e+03   0.8 1.53e+00   4.1 1.97e-03 7.25e-04H  1
 186r 1.1753887e+03 2.71e+00 8.74e+03   0.8 1.52e+00   3.7 1.16e-01 6.90e-03h  1
 187r 1.1753887e+03 2.71e+00 8.73e+03   0.8 1.40e+00   3.2 6.20e-02 1.03e-03f  8
 188r 1.1753887e+03 2.71e+00 8.73e+03   0.8 1.48e+00   3.6 7.16e-02 9.86e-04h 10
 189r 1.1753887e+03 2.71e+00 8.73e+03   0.8 1.53e+00   3.1 2.55e-01 1.11e-04f  8
iter    objective    inf_pr   inf_du lg(mu)  ||d||  lg(rg) alpha_du alpha_pr  ls
 190r 1.1753887e+03 2.71e+00 8.80e+03   0.8 2.53e+02    -  7.18e-02 8.06e-06f 10
 191r 1.1753887e+03 2.71e+00 8.82e+03   0.8 4.08e+02    -  1.74e-02 8.03e-07f 16
 192r 1.1753887e+03 2.71e+00 9.00e+03   0.8 2.46e+02    -  2.00e-01 5.76e-07f 17
 193r 1.1753894e+03 2.66e+00 8.84e+03   0.8 1.75e+03    -  6.72e-04 1.66e-02f  1
 194r 1.1753882e+03 4.58e+01 2.09e+05   0.8 6.55e+01    -  7.44e-02 2.80e-01f  1
 195r 1.1753882e+03 4.33e+01 1.98e+05   0.8 1.72e+00   3.6 9.55e-03 5.40e-02h  1
 196r 1.1753882e+03 4.18e+01 1.91e+05   0.8 3.38e+00   3.1 5.14e-02 3.71e-02h  3
 197r 1.1753882e+03 4.11e+01 1.87e+05   0.8 4.15e+00   2.6 1.47e-02 1.71e-02h  3
 198r 1.1753882e+03 4.10e+01 1.87e+05   0.8 3.32e+00   3.0 4.50e-02 2.47e-03h  6
 199r 1.1753882e+03 1.53e+00 5.46e+03   0.8 2.42e+00   3.4 6.13e-02 1.38e-01h  1
iter    objective    inf_pr   inf_du lg(mu)  ||d||  lg(rg) alpha_du alpha_pr  ls
 200r 1.1753882e+03 1.53e+00 9.99e+02   0.2 0.00e+00    -  0.00e+00 2.97e-07R  9
 201r 1.1753878e+03 5.83e-01 9.96e+02   0.2 1.37e+03    -  3.18e-03 1.24e-03f  1
 202  1.1757092e+03 5.83e-01 2.26e+02  -1.0 3.73e+07    -  2.15e-03 1.98e-04h  7
 203  1.1758858e+03 5.83e-01 3.08e+02  -1.0 4.30e+07    -  2.60e-03 1.06e-04h  8
 204  1.1769455e+03 5.83e-01 3.98e+03  -1.0 4.59e+07    -  1.69e-02 6.79e-04h  4
 205  1.1770221e+03 5.83e-01 4.95e+03  -1.0 6.25e+07    -  7.16e-03 5.43e-04h  3
 206  1.1777268e+03 5.82e-01 1.29e+04  -1.0 7.19e+07    -  1.17e-02 1.71e-03h  2
 207  1.1800619e+03 5.81e-01 1.43e+04  -1.0 9.18e+07    -  1.05e-02 1.75e-03h  4
 208  1.2033532e+03 5.77e-01 6.74e+03  -1.0 9.63e+07    -  1.46e-02 6.23e-03h  3
 209  1.2783267e+03 5.71e-01 6.92e+04  -1.0 8.64e+07    -  6.87e-02 1.02e-02h  2
iter    objective    inf_pr   inf_du lg(mu)  ||d||  lg(rg) alpha_du alpha_pr  ls
 210  1.3642354e+03 5.64e-01 7.03e+04  -1.0 5.40e+07    -  8.57e-02 1.20e-02h  1
 211  1.3687926e+03 5.64e-01 7.02e+04  -1.0 6.70e+07    -  9.52e-02 4.40e-04h  2
 212  1.3724345e+03 5.64e-01 7.02e+04  -1.0 7.37e+07    -  6.84e-02 3.96e-04h  6
 213  1.3734257e+03 5.64e-01 8.91e+04  -1.0 7.44e+07    -  6.13e-02 2.91e-04h  7
 214  1.3690485e+03 5.63e-01 7.36e+05  -1.0 7.52e+07    -  1.74e-01 7.24e-04f  6
 215  1.3536835e+03 5.63e-01 2.16e+06  -1.0 9.10e+07    -  5.85e-02 9.01e-04f  6
 216  1.3452758e+03 5.62e-01 1.18e+07  -1.0 7.93e+07    -  1.42e-01 9.53e-04f  6
 217  1.0383377e+03 5.60e-01 2.32e+07  -1.0 8.25e+07    -  3.68e-02 3.64e-03F  1
 218  1.0399994e+03 5.60e-01 4.22e+07  -1.0 2.96e+07    -  3.09e-02 1.73e-04h  5
 219  1.0413896e+03 5.60e-01 5.31e+07  -1.0 2.59e+07    -  9.06e-03 1.65e-04h  5
iter    objective    inf_pr   inf_du lg(mu)  ||d||  lg(rg) alpha_du alpha_pr  ls
 220  1.0418510e+03 5.60e-01 1.11e+08  -1.0 1.76e+07    -  3.72e-02 7.84e-05h  6
 221  1.0417297e+03 5.60e-01 1.26e+08  -1.0 1.23e+07    -  4.51e-03 7.64e-05f  6
 222  1.0327196e+03 5.58e-01 3.44e+08  -1.0 1.37e+07    -  5.87e-02 2.39e-03f  1
 223r 1.0327196e+03 5.58e-01 1.00e+03  -0.3 0.00e+00    -  0.00e+00 4.77e-07R  7
 224r 1.0327196e+03 2.04e-01 9.98e+02  -0.3 1.49e+03    -  3.49e-03 1.29e-03f  1
 225  1.0327274e+03 2.04e-01 4.63e+03  -1.0 9.65e+06    -  2.78e-04 1.51e-05h  2
 226  1.0327294e+03 2.04e-01 1.04e+04  -1.0 9.59e+06    -  2.26e-05 3.83e-06f  3
 227  1.0327296e+03 2.04e-01 1.05e+04  -1.0 1.58e+07    -  1.41e-05 3.61e-07f  6
 228  1.0327296e+03 2.04e-01 1.06e+04  -1.0 2.72e+07    -  1.06e-05 1.37e-07f  7
 229  1.0327296e+03 2.04e-01 1.06e+04  -1.0 3.09e+07    -  9.06e-06 5.53e-08f  8
iter    objective    inf_pr   inf_du lg(mu)  ||d||  lg(rg) alpha_du alpha_pr  ls
 230  1.0327295e+03 2.04e-01 1.06e+04  -1.0 2.49e+07    -  9.32e-06 1.43e-08f 10
 231  1.0326719e+03 8.70e+00 3.99e+09  -1.0 2.05e+07    -  7.68e-06 8.16e-06f  1
 232  1.0326877e+03 8.70e+00 3.99e+09  -1.0 1.29e+10  -4.6 1.73e-09 8.45e-09f  5
 233  1.0326918e+03 8.70e+00 3.99e+09  -1.0 1.12e+13  -5.1 1.65e-12 6.16e-12f  5
 234r 1.0326918e+03 8.70e+00 9.99e+02   0.9 0.00e+00  -4.7 0.00e+00 1.69e-09R  2
 235r 1.0326876e+03 6.78e+00 9.87e+02   0.9 1.72e+03    -  6.36e-05 1.28e-02f  1
 236  1.0326801e+03 6.63e+00 2.60e+05  -1.0 3.39e+07    -  8.58e-04 1.34e-05h  1
 237  1.0326248e+03 6.61e+00 5.86e+05  -1.0 1.41e+10    -  2.10e-06 3.54e-08f  3
 238  1.0293829e+03 1.32e+01 1.20e+23  -1.0 2.77e+11    -  1.09e-07 1.11e-07f  1
MA27BD returned iflag=-4 and requires more memory.
 Increase liw from 21955 to 43910 and la from 25360 to 51758 and factorize again.
Scaling factors are invalid - setting them all to 1.
Scaling factors are invalid - setting them all to 1.
Scaling factors are invalid - setting them all to 1.
Scaling factors are invalid - setting them all to 1.
Scaling factors are invalid - setting them all to 1.
Scaling factors are invalid - setting them all to 1.
Scaling factors are invalid - setting them all to 1.
Scaling factors are invalid - setting them all to 1.
Scaling factors are invalid - setting them all to 1.
Scaling factors are invalid - setting them all to 1.
Scaling factors are invalid - setting them all to 1.
Scaling factors are invalid - setting them all to 1.
WARNING: Problem in step computation; switching to emergency mode.
 239r 1.0293829e+03 1.32e+01 1.00e+03   1.1 0.00e+00  19.0 0.00e+00 0.00e+00R  1
iter    objective    inf_pr   inf_du lg(mu)  ||d||  lg(rg) alpha_du alpha_pr  ls
 240r 1.0293828e+03 1.27e+01 2.45e+03   1.1 1.40e+03    -  5.35e-02 3.05e-03f  1
 241r 1.0293827e+03 1.23e+01 9.85e+03   1.1 5.37e+01    -  1.21e-01 3.50e-02f  1
 242r 1.0293827e+03 9.69e+00 4.76e+10   1.1 3.26e+01    -  1.82e-01 1.21e-02f  1
 243  1.0295478e+03 9.71e+00 1.04e+07  -1.0 1.69e+06    -  8.09e-04 2.99e-03h  3
 244  1.0295310e+03 8.43e+00 2.10e+15  -1.0 4.86e+03  -2.0 3.00e-02 2.08e-02h  2
WARNING: Problem in step computation; switching to emergency mode.
 245r 1.0295310e+03 8.43e+00 9.99e+02   0.9 0.00e+00  18.3 0.00e+00 0.00e+00R  1
 246r 1.0295310e+03 1.29e+01 1.01e+05   0.9 8.43e+03    -  1.75e-01 9.90e-04f  1
 247r 1.0295309e+03 8.33e+00 2.36e+09   0.9 1.19e+02    -  4.10e-02 1.60e-02f  1
 248r 1.0295309e+03 3.85e-01 1.39e+05   0.9 5.22e+01   5.5 1.81e-04 5.42e-05h  4
 249  1.0295303e+03 7.87e+00 2.82e+22  -1.0 1.20e+13    -  1.86e-13 1.86e-12f  4
WARNING: Problem in step computation; switching to emergency mode.
iter    objective    inf_pr   inf_du lg(mu)  ||d||  lg(rg) alpha_du alpha_pr  ls
 250r 1.0295303e+03 7.87e+00 9.99e+02   0.9 0.00e+00  19.8 0.00e+00 0.00e+00R  1
 251r 1.0295303e+03 7.69e+00 4.89e+03   0.9 7.87e+03    -  1.81e-01 9.90e-04f  1
 252r 1.0295298e+03 1.29e+01 1.55e+09   0.9 4.16e+01    -  4.51e-01 1.90e-01f  1
 253r 1.0295298e+03 9.83e+00 8.14e+15   0.9 1.71e+00   8.4 2.32e-03 2.42e-02h  1
WARNING: Problem in step computation; switching to emergency mode.
 254r 1.0295298e+03 9.83e+00 8.14e+15   0.9 1.71e+00  19.2 0.00e+00 0.00e+00R  1
 255r 1.0295298e+03 9.83e+00 8.66e+04   0.9 2.30e-17  19.6 9.90e-01 1.00e+00   0
 256r 1.0295299e+03 1.24e+01 1.79e+10   0.9 4.81e+02    -  1.95e-02 7.60e-03f  1
 257r 1.0295299e+03 2.27e+00 2.33e+27   0.9 2.54e+00  19.2 9.94e-03 3.94e-03h  1
 258  1.0295294e+03 4.43e+01 8.99e+20  -1.0 3.95e+11    -  7.42e-11 1.97e-10f  2
 259  1.0295294e+03 4.43e+01 8.77e+20  -1.0 1.33e-08  20.0 9.90e-01 9.90e-01s 22
iter    objective    inf_pr   inf_du lg(mu)  ||d||  lg(rg) alpha_du alpha_pr  ls
 260r 1.0295294e+03 4.43e+01 9.99e+02   1.6 0.00e+00  19.5 0.00e+00 0.00e+00R  1
 261r 1.0295294e+03 1.28e+01 2.54e+09   1.6 1.71e+04    -  3.83e-03 4.46e-04f  1
 262  1.0270180e+03 2.58e+01 9.64e+01  -1.0 4.56e+06    -  1.36e-03 1.79e-03f  1
 263  1.0273039e+03 1.21e+01 2.85e+03  -1.0 1.28e+15    -  2.88e-12 1.20e-12H  1
 264  1.0273166e+03 3.74e+00 2.84e+03  -1.0 7.72e+07    -  1.60e-04 2.40e-06h  3
 265  1.0213612e+03 1.21e+01 3.60e+20  -1.0 1.75e+14    -  6.61e-15 6.83e-13H  1
 266r 1.0213612e+03 1.21e+01 9.99e+02   1.1 0.00e+00  19.0 0.00e+00 3.28e-07R  2
 267r 1.0213610e+03 2.97e+01 4.92e+03   1.1 1.11e+04    -  3.14e-03 1.04e-03f  1
 268r 1.0213610e+03 1.22e+01 7.70e+18   1.1 5.18e+00  14.0 1.16e-03 3.58e-06h  1
 269r 1.0213610e+03 1.22e+01 9.04e+13   1.1 4.92e-01  17.1 5.72e-02 2.74e-03f  5
iter    objective    inf_pr   inf_du lg(mu)  ||d||  lg(rg) alpha_du alpha_pr  ls
 270r 1.0213610e+03 1.55e+01 2.73e+16   1.1 1.31e-01  16.7 7.51e-08 1.44e-01H  1
 271r 1.0213610e+03 1.47e+01 7.82e+15   1.1 5.44e-01  16.2 8.62e-03 1.75e-03H  1
 272r 1.0213610e+03 1.47e+01 7.82e+15   1.1 2.24e-01  16.6 0.00e+00 2.59e-07R  7
 273r 1.0213610e+03 1.47e+01 5.85e+03   1.1 1.03e-13  16.1 9.91e-01 1.00e+00f  1
 274r 1.0213610e+03 1.47e+01 2.81e+05   1.1 6.26e-11  15.7 1.00e+00 1.00e+00h  1
 275r 1.0213610e+03 1.47e+01 7.88e+04   1.1 5.26e-11  15.2 1.00e+00 1.00e+00h  1
 276r 1.0213610e+03 1.47e+01 2.29e+04   1.1 4.59e-11  14.7 1.00e+00 1.00e+00h  1
 277r 1.0213610e+03 1.47e+01 6.46e+03   1.1 3.88e-11  14.2 1.00e+00 1.00e+00h  1
 278r 1.0213610e+03 1.47e+01 6.13e+03   1.1 1.10e-10  13.7 1.00e+00 1.00e+00h  1
 279r 1.0213610e+03 1.47e+01 1.33e+03   1.1 7.19e-11  13.3 1.00e+00 1.00e+00h  1
iter    objective    inf_pr   inf_du lg(mu)  ||d||  lg(rg) alpha_du alpha_pr  ls
 280r 1.0213610e+03 1.47e+01 1.08e+03   1.1 1.75e-10  12.8 1.00e+00 1.00e+00h  1
 281r 1.0213610e+03 1.47e+01 1.06e+03   1.1 5.15e-10  12.3 1.00e+00 1.00e+00h  1
 282r 1.0213610e+03 1.47e+01 1.06e+03   1.1 1.55e-09  11.8 1.00e+00 5.00e-01h  2
 283r 1.0213610e+03 1.47e+01 1.06e+03   1.1 4.65e-09  11.4 1.00e+00 7.81e-03h  8
 284r 1.0213610e+03 1.47e+01 1.06e+03   1.1 1.40e-08  10.9 1.00e+00 2.44e-04h 13
 285r 1.0213610e+03 1.47e+01 1.06e+03   1.1 4.19e-08  10.4 1.00e+00 1.53e-05h 17
 286r 1.0213610e+03 1.47e+01 1.06e+03   1.1 1.26e-07   9.9 1.00e+00 1.91e-06h 20
 287r 1.0213610e+03 1.47e+01 1.06e+03   1.1 3.77e-07   9.5 1.00e+00 1.25e-01f  4
 288r 1.0213610e+03 1.54e+01 1.06e+03   1.1 1.13e-06   9.0 1.00e+00 1.00e+00f  1
 289r 1.0213610e+03 1.53e+01 2.95e+06   1.1 1.50e-02   8.5 1.00e+00 1.00e+00h  1
iter    objective    inf_pr   inf_du lg(mu)  ||d||  lg(rg) alpha_du alpha_pr  ls
 290r 1.0213610e+03 1.47e+01 2.27e+06   1.1 1.62e-02   8.0 1.00e+00 2.69e-03h  5
 291r 1.0213610e+03 1.54e+01 3.77e+05   1.1 4.73e-03   7.5 1.00e+00 1.00e+00f  1
 292r 1.0213610e+03 1.54e+01 3.77e+05   1.1 1.78e-02   7.1 1.00e+00 1.51e-03h  8
 293r 1.0213610e+03 1.54e+01 2.63e+05   1.1 1.82e-02   6.6 1.00e+00 1.00e+00f  1
 294r 1.0213610e+03 1.51e+01 1.08e+05   1.1 1.88e-02   6.1 1.00e+00 1.00e+00f  1
 295r 1.0213610e+03 1.45e+01 1.97e+04   1.1 3.24e-02   5.6 1.00e+00 1.00e+00f  1
 296r 1.0213610e+03 1.50e+01 1.08e+04   1.1 3.20e-02   5.2 7.83e-01 1.00e+00f  1
 297r 1.0213610e+03 1.56e+01 1.53e+04   1.1 3.07e-02   4.7 1.00e+00 1.00e+00f  1
 298r 1.0213614e+03 1.46e+01 3.57e+03   1.1 8.13e+04    -  1.92e-03 5.16e-04f  1
 299r 1.0213614e+03 1.49e+01 2.11e+03   1.1 6.23e-02   4.2 8.41e-01 4.91e-01f  1
iter    objective    inf_pr   inf_du lg(mu)  ||d||  lg(rg) alpha_du alpha_pr  ls
 300r 1.0213614e+03 1.46e+01 9.42e+02   1.1 2.25e-01   3.7 1.00e+00 5.99e-01f  1
 301r 1.0213614e+03 1.47e+01 1.41e+03   1.1 4.50e-01   3.2 1.00e+00 3.16e-01f  1
 302r 1.0213603e+03 1.47e+01 1.49e+03   1.1 1.34e+03    -  1.37e-02 6.71e-03f  1
 303r 1.0213604e+03 1.46e+01 1.02e+03   1.1 7.84e+01    -  1.57e-01 2.06e-02f  1
 304r 1.0213620e+03 1.41e+01 5.98e+02   1.1 2.70e+01    -  1.17e-01 1.96e-01f  1
 305r 1.0213620e+03 1.42e+01 1.02e+03   0.4 1.98e-01   4.6 1.57e-01 1.38e-01f  1
 306r 1.0213620e+03 1.41e+01 2.13e+03   0.4 2.18e-01   4.1 5.24e-01 6.98e-01f  1
 307r 1.0213620e+03 1.19e+01 9.80e+11   0.4 1.43e+00   3.6 1.00e+00 1.24e-01f  1
 308r 1.0213620e+03 1.19e+01 1.74e+18   0.4 5.40e+00  11.5 4.98e-04 7.69e-03h  1
WARNING: Problem in step computation; switching to emergency mode.
 309r 1.0213620e+03 1.19e+01 1.74e+18   0.4 5.40e+00  19.5 0.00e+00 0.00e+00R  1
iter    objective    inf_pr   inf_du lg(mu)  ||d||  lg(rg) alpha_du alpha_pr  ls
 310r 1.0213620e+03 1.19e+01 5.75e+08   0.4 1.07e-17  20.0 9.90e-01 1.00e+00   0
 311r 1.0213620e+03 1.19e+01 1.00e+03   0.4 3.22e-17  19.5 1.00e+00 1.00e+00   0
 312r 1.0213620e+03 1.19e+01 1.00e+03   0.4 9.65e-17  19.0 1.00e+00 1.00e+00   0
 313r 1.0213620e+03 1.19e+01 8.21e+03   0.4 2.38e-15  18.5 1.00e+00 1.00e+00   0
 314r 1.0213620e+03 1.19e+01 1.38e+03   0.4 1.20e-15  18.1 1.00e+00 1.00e+00   0
 315r 1.0213620e+03 1.19e+01 4.18e+05   0.4 1.09e-12  17.6 1.00e+00 1.00e+00h  1
 316r 1.0213620e+03 1.19e+01 5.26e+05   0.4 4.12e-12  17.1 1.00e+00 1.00e+00h  1
 317r 1.0213620e+03 1.19e+01 2.31e+06   0.4 5.42e-11  16.6 1.00e+00 1.00e+00h  1
 318r 1.0213620e+03 1.19e+01 1.03e+06   0.4 7.25e-11  16.2 1.00e+00 1.00e+00h  1
 319r 1.0213620e+03 1.19e+01 6.81e+05   0.4 7.80e-11  15.7 1.00e+00 2.50e-01h  3
iter    objective    inf_pr   inf_du lg(mu)  ||d||  lg(rg) alpha_du alpha_pr  ls
 320r 1.0213620e+03 1.19e+01 1.19e+05   0.4 7.82e-11  15.2 1.00e+00 1.00e+00H  1
 321r 1.0213620e+03 1.19e+01 8.00e+04   0.4 7.72e-11  14.7 1.00e+00 2.50e-01h  3
 322r 1.0213620e+03 1.19e+01 3.42e+04   0.4 6.60e-11  14.2 1.00e+00 5.00e-01h  2
 323r 1.0213620e+03 1.19e+01 1.99e+03   0.4 3.41e-11  13.8 1.00e+00 1.00e+00h  1
 324r 1.0213620e+03 1.19e+01 1.23e+03   0.4 6.30e-11  13.3 1.00e+00 1.00e+00h  1
 325r 1.0213620e+03 1.19e+01 1.00e+03   0.4 1.54e-10  12.8 1.00e+00 1.00e+00h  1
 326r 1.0213620e+03 1.19e+01 1.00e+03   0.4 4.62e-10  12.3 1.00e+00 1.00e+00h  1
 327r 1.0213620e+03 1.19e+01 1.00e+03   0.4 1.39e-09  11.9 1.00e+00 1.00e+00h  1
 328r 1.0213620e+03 1.19e+01 1.00e+03   0.4 4.16e-09  11.4 1.00e+00 1.00e+00h  1
 329r 1.0213620e+03 1.19e+01 1.00e+03   0.4 1.25e-08  10.9 1.00e+00 1.00e+00f  1
iter    objective    inf_pr   inf_du lg(mu)  ||d||  lg(rg) alpha_du alpha_pr  ls
 330r 1.0213620e+03 1.29e+01 2.70e+04   0.4 3.74e-08  10.4 1.00e+00 1.00e+00f  1
 331r 1.0213620e+03 4.13e+01 1.50e+16   0.4 9.71e-01   9.9 1.24e-03 1.75e-03f  2
 332r 1.0213620e+03 1.27e+01 1.10e+20   0.4 1.68e+00  17.8 9.71e-03 3.80e-04h  3
 333r 1.0213620e+03 3.98e+01 6.19e+23   0.4 3.23e+00  19.1 7.99e-04 2.21e-02f  1
Scaling factors are invalid - setting them all to 1.
Scaling factors are invalid - setting them all to 1.
Scaling factors are invalid - setting them all to 1.
Scaling factors are invalid - setting them all to 1.
Scaling factors are invalid - setting them all to 1.
Scaling factors are invalid - setting them all to 1.
Scaling factors are invalid - setting them all to 1.
Scaling factors are invalid - setting them all to 1.
Scaling factors are invalid - setting them all to 1.
Scaling factors are invalid - setting them all to 1.
Scaling factors are invalid - setting them all to 1.
Scaling factors are invalid - setting them all to 1.
Scaling factors are invalid - setting them all to 1.
Scaling factors are invalid - setting them all to 1.
Scaling factors are invalid - setting them all to 1.
Scaling factors are invalid - setting them all to 1.
WARNING: Problem in step computation; switching to emergency mode.
 334r 1.0213620e+03 3.98e+01 6.19e+23   0.4 3.23e+00  20.0 0.00e+00 0.00e+00R  1
Scaling factors are invalid - setting them all to 1.
Scaling factors are invalid - setting them all to 1.
Scaling factors are invalid - setting them all to 1.
Scaling factors are invalid - setting them all to 1.
Scaling factors are invalid - setting them all to 1.
Scaling factors are invalid - setting them all to 1.
Scaling factors are invalid - setting them all to 1.
Scaling factors are invalid - setting them all to 1.
Scaling factors are invalid - setting them all to 1.
Scaling factors are invalid - setting them all to 1.
Scaling factors are invalid - setting them all to 1.
Scaling factors are invalid - setting them all to 1.
Scaling factors are invalid - setting them all to 1.
Scaling factors are invalid - setting them all to 1.
WARNING: Problem in step computation; switching to emergency mode.
Restoration phase is called at point that is almost feasible,
  with constraint violation 0.000000e+00. Abort.
Restoration phase in the restoration phase failed.

Number of Iterations....: 334

                                   (scaled)                 (unscaled)
Objective...............:   1.0213620425007427e+03    1.0213620425007427e+03
Dual infeasibility......:   6.1894048715907339e+23    6.1894048715907339e+23
Constraint violation....:   3.9799413785762468e+01    3.9799413785762468e+01
Complementarity.........:   2.6167054539011740e+00    2.6167054539011740e+00
Overall NLP error.......:   5.3377993326517899e+10    6.1894048715907339e+23


Number of objective function evaluations             = 1311
Number of objective gradient evaluations             = 210
Number of equality constraint evaluations            = 1312
Number of inequality constraint evaluations          = 0
Number of equality constraint Jacobian evaluations   = 351
Number of inequality constraint Jacobian evaluations = 0
Number of Lagrangian Hessian evaluations             = 335
Total CPU secs in IPOPT (w/o function evaluations)   =      1.304
Total CPU secs in NLP function evaluations           =     15.700

EXIT: Restoration Failed!
